c generated by sgen
c see http://www.cs.qub.ac.uk/~i.spence/sgen
p cnf 69 148
-2 -3 -4 0
-1 -3 -4 0
-1 -2 -4 0
-1 -2 -3 0
-6 -7 -8 0
-5 -7 -8 0
-5 -6 -8 0
-5 -6 -7 0
-10 -11 -12 0
-9 -11 -12 0
-9 -10 -12 0
-9 -10 -11 0
-14 -15 -16 0
-13 -15 -16 0
-13 -14 -16 0
-13 -14 -15 0
-18 -19 -20 0
-17 -19 -20 0
-17 -18 -20 0
-17 -18 -19 0
-22 -23 -24 0
-21 -23 -24 0
-21 -22 -24 0
-21 -22 -23 0
-26 -27 -28 0
-25 -27 -28 0
-25 -26 -28 0
-25 -26 -27 0
-30 -31 -32 0
-29 -31 -32 0
-29 -30 -32 0
-29 -30 -31 0
-34 -35 -36 0
-33 -35 -36 0
-33 -34 -36 0
-33 -34 -35 0
-38 -39 -40 0
-37 -39 -40 0
-37 -38 -40 0
-37 -38 -39 0
-42 -43 -44 0
-41 -43 -44 0
-41 -42 -44 0
-41 -42 -43 0
-46 -47 -48 0
-45 -47 -48 0
-45 -46 -48 0
-45 -46 -47 0
-50 -51 -52 0
-49 -51 -52 0
-49 -50 -52 0
-49 -50 -51 0
-54 -55 -56 0
-53 -55 -56 0
-53 -54 -56 0
-53 -54 -55 0
-58 -59 -60 0
-57 -59 -60 0
-57 -58 -60 0
-57 -58 -59 0
-62 -63 -64 0
-61 -63 -64 0
-61 -62 -64 0
-61 -62 -63 0
-65 -66 -67 0
-65 -66 -68 0
-65 -66 -69 0
-65 -67 -68 0
-65 -67 -69 0
-65 -68 -69 0
-66 -67 -68 0
-66 -67 -69 0
-66 -68 -69 0
-67 -68 -69 0
65 54 50 0
36 54 50 0
36 65 50 0
36 65 54 0
63 38 9 0
8 38 9 0
8 63 9 0
8 63 38 0
28 14 6 0
19 14 6 0
19 28 6 0
19 28 14 0
52 58 39 0
1 58 39 0
1 52 39 0
1 52 58 0
61 20 43 0
21 20 43 0
21 61 43 0
21 61 20 0
59 48 5 0
34 48 5 0
34 59 5 0
34 59 48 0
27 46 51 0
23 46 51 0
23 27 51 0
23 27 46 0
57 32 68 0
13 32 68 0
13 57 68 0
13 57 32 0
56 41 47 0
15 41 47 0
15 56 47 0
15 56 41 0
3 66 45 0
64 66 45 0
64 3 45 0
64 3 66 0
11 42 60 0
4 42 60 0
4 11 60 0
4 11 42 0
53 25 62 0
31 25 62 0
31 53 62 0
31 53 25 0
35 37 18 0
30 37 18 0
30 35 18 0
30 35 37 0
67 40 26 0
44 40 26 0
44 67 26 0
44 67 40 0
7 55 22 0
29 55 22 0
29 7 22 0
29 7 55 0
69 12 49 0
17 12 49 0
17 69 49 0
17 69 12 0
2 16 33 0
2 16 24 0
2 16 10 0
2 33 24 0
2 33 10 0
2 24 10 0
16 33 24 0
16 33 10 0
16 24 10 0
33 24 10 0
